proyfinal/src/viki/013/experimentInOfficeAgust.take6.output/06f79464-3205-42d4-886c-7f1150987d51.als.out
Reading from standard input... Use '--help' for help.
============================[ Problem Statistics ]=============================
|                                                                             |
|  Number of variables:         87638                                         |
|  Number of clauses:          161767                                         |
|  Parse time:                   0.03 s                                       |
|                                                                             |
============================[ Search Statistics ]==============================
| Conflicts |          ORIGINAL         |          LEARNT          | Progress |
|           |    Vars  Clauses Literals |    Limit  Clauses Lit/Cl |          |
===============================================================================
|       100 |   65226   115544   288439 |    42366       99     33 | 25.573 % |
|       250 |   56548    89209   223413 |    46602      247     31 | 35.475 % |
|       475 |   56548    89209   223413 |    51263      472     57 | 35.475 % |
|       812 |   56456    89127   223191 |    56389      805     49 | 35.580 % |
|      1318 |   56047    87548   219388 |    62028     1304     57 | 36.047 % |
|      2077 |   56030    87222   218637 |    68231     2056     53 | 36.067 % |
|      3216 |   56030    87222   218637 |    75054     3195     73 | 36.067 % |
|      4924 |   55434    85073   213379 |    82559     4780     83 | 36.747 % |
|      7486 |   55385    84916   212999 |    90815     7339     89 | 36.803 % |
|     11330 |   55224    84348   211648 |    99897    11160     90 | 36.986 % |
|     17096 |   55174    84123   211157 |   109886    16901     86 | 37.043 % |
===============================================================================
restarts              : 70
conflicts             : 20115          (6997 /sec)
decisions             : 82419          (0.00 % random) (28669 /sec)
propagations          : 30807198       (10716229 /sec)
conflict literals     : 1740516        (37.41 % deleted)
Memory used           : 40.36 MB
CPU time              : 2.87482 s

INDETERMINATE
